(set-logic HORN)
(set-info :source |
    Benchmark: C_VC
    Output by Princess (http://www.philipp.ruemmer.org/princess.shtml)
|)
(set-info :status sat)
(declare-heap Heap Addr HeapObject
 defObj
 ((HeapObject 0)) (
  (
   (O_Int (getInt Int))
   (O_UInt (getUInt Int))
   (O_Addr (getAddr Addr))
   (defObj)
  )
))
(declare-fun inv_main13 (Heap Int Int AddrRange AddrRange AddrRange Int) Bool)
(declare-fun inv_main19 (Heap Int Int AddrRange AddrRange AddrRange Int) Bool)
(declare-fun inv_main22 (Heap Int Int AddrRange AddrRange AddrRange) Bool)
(declare-fun inv_main24 (Heap Int Int AddrRange AddrRange AddrRange Int) Bool)
(declare-fun inv_main25 (Heap Int Int AddrRange AddrRange AddrRange Int) Bool)
(declare-fun inv_main28 (Heap Int Int AddrRange AddrRange AddrRange) Bool)
(declare-fun inv_main6 (Heap Int Int AddrRange AddrRange AddrRange) Bool)
(declare-fun inv_main8 (Heap Int Int AddrRange AddrRange AddrRange) Bool)
(assert (forall ((var0 Int) (var1 AddrRange) (var2 AddrRange) (var3 Int) (var4 Int) (var5 Int) (var6 Heap) (var7 AddrRange) (var8 Int) (var9 Int) (var10 Int) (var11 Int) (var12 Heap) (var13 Int) (var14 Heap)) (or (not (and (and (and (= var14 emptyHeap) (= var13 100000)) (and (and (and (= var12 (newBatchHeap (batchAlloc emptyHeap (O_Int var11) var13))) (= var10 var13)) (= var9 var8)) (= var7 (newAddrRange (batchAlloc emptyHeap (O_Int var11) var13))))) (and (and (and (and (= var6 (newBatchHeap (batchAlloc emptyHeap (O_Int var5) var10))) (= var4 var10)) (= var3 var9)) (= var2 var7)) (= var1 (newAddrRange (batchAlloc emptyHeap (O_Int var5) var10)))))) (inv_main6 (newBatchHeap (batchAlloc emptyHeap (O_Int var0) var4)) var4 var3 var2 var1 (newAddrRange (batchAlloc emptyHeap (O_Int var0) var4))))))
(assert (forall ((var0 Int) (var1 AddrRange) (var2 AddrRange) (var3 AddrRange) (var4 Int) (var5 Int) (var6 Heap)) (or (not (and (inv_main13 var6 var5 var4 var3 var2 var1 var0) (and (is-O_Int (read var6 (nthAddrRange var3 var4))) (is-O_Int (read var6 (nthAddrRange var3 var4)))))) (inv_main19 (write var6 (nthAddrRange var3 var4) (O_Int var0)) var5 var4 var3 var2 var1 var0))))
(assert (forall ((var0 AddrRange) (var1 AddrRange) (var2 AddrRange) (var3 Int) (var4 Int) (var5 Heap)) (or (not (and (inv_main22 var5 var4 var3 var2 var1 var0) (is-O_Int (read var5 (nthAddrRange var2 var3))))) (inv_main24 var5 var4 var3 var2 var1 var0 (getInt (read var5 (nthAddrRange var2 var3)))))))
(assert (forall ((var0 Int) (var1 Int) (var2 AddrRange) (var3 AddrRange) (var4 AddrRange) (var5 Int) (var6 Int) (var7 Heap) (var8 Int) (var9 AddrRange) (var10 AddrRange) (var11 AddrRange) (var12 Int) (var13 Int) (var14 Heap)) (or (not (and (inv_main8 var14 var13 var12 var11 var10 var9) (and (and (not (= var8 0)) (and (and (and (and (and (and (and (= var7 var14) (= var6 var13)) (= var5 var12)) (= var4 var11)) (= var3 var10)) (= var2 var9)) (= var1 var0)) (or (and (and (<= 0 (+ (+ var0 100000) (- 1))) (<= 0 (+ (+ 100000 (* (- 1) var0)) (- 1)))) (= var8 1)) (and (not (and (<= 0 (+ (+ var0 100000) (- 1))) (<= 0 (+ (+ 100000 (* (- 1) var0)) (- 1))))) (= var8 0))))) (<= 0 (+ (+ var13 (* (- 1) var12)) (- 1)))))) (inv_main13 var7 var6 var5 var4 var3 var2 var1))))
(assert (forall ((var0 Int) (var1 AddrRange) (var2 AddrRange) (var3 AddrRange) (var4 Int) (var5 Int) (var6 Heap)) (or (not (and (inv_main24 var6 var5 var4 var3 var2 var1 var0) (is-O_Int (read var6 (nthAddrRange var2 var4))))) (inv_main25 var6 var5 var4 var3 var2 var1 (+ var0 (getInt (read var6 (nthAddrRange var2 var4))))))))
(assert (forall ((var0 AddrRange) (var1 AddrRange) (var2 AddrRange) (var3 Int) (var4 Int) (var5 Heap)) (or (not (inv_main6 var5 var4 var3 var2 var1 var0)) (inv_main8 var5 var4 0 var2 var1 var0))))
(assert (forall ((var0 AddrRange) (var1 AddrRange) (var2 AddrRange) (var3 Int) (var4 Int) (var5 Heap) (var6 Int) (var7 AddrRange) (var8 AddrRange) (var9 AddrRange) (var10 Int) (var11 Int) (var12 Heap)) (or (not (and (inv_main19 var12 var11 var10 var9 var8 var7 var6) (and (and (is-O_Int (read var12 (nthAddrRange var8 var10))) (is-O_Int (read var12 (nthAddrRange var8 var10)))) (and (and (and (and (and (= var5 (write var12 (nthAddrRange var8 var10) (O_Int (* (- 1) var6)))) (= var4 var11)) (= var3 var10)) (= var2 var9)) (= var1 var8)) (= var0 var7))))) (inv_main8 var5 var4 (+ var3 1) var2 var1 var0))))
(assert (forall ((var0 AddrRange) (var1 AddrRange) (var2 AddrRange) (var3 Int) (var4 Int) (var5 Heap)) (or (not (and (inv_main8 var5 var4 var3 var2 var1 var0) (and (<= 0 (+ var4 (- 1))) (not (<= 0 (+ (+ var4 (* (- 1) var3)) (- 1))))))) (inv_main22 var5 var4 0 var2 var1 var0))))
(assert (forall ((var0 AddrRange) (var1 AddrRange) (var2 AddrRange) (var3 Heap) (var4 Int) (var5 Int) (var6 Int) (var7 AddrRange) (var8 AddrRange) (var9 AddrRange) (var10 Int) (var11 Int) (var12 Heap)) (or (not (and (inv_main25 var12 var11 var10 var9 var8 var7 var6) (and (<= 0 (+ (+ var5 (* (- 1) (+ var4 1))) (- 1))) (and (and (is-O_Int (read var12 (nthAddrRange var7 var10))) (is-O_Int (read var12 (nthAddrRange var7 var10)))) (and (and (and (and (and (= var3 (write var12 (nthAddrRange var7 var10) (O_Int var6))) (= var5 var11)) (= var4 var10)) (= var2 var9)) (= var1 var8)) (= var0 var7)))))) (inv_main22 var3 var5 (+ var4 1) var2 var1 var0))))
(assert (forall ((var0 AddrRange) (var1 AddrRange) (var2 AddrRange) (var3 Int) (var4 Int) (var5 Heap)) (or (not (and (inv_main28 var5 var4 var3 var2 var1 var0) (and (<= 0 (+ (+ var4 (* (- 1) (+ var3 1))) (- 1))) (is-O_Int (read var5 (nthAddrRange var0 var3)))))) (inv_main28 var5 var4 (+ var3 1) var2 var1 var0))))
(assert (forall ((var0 AddrRange) (var1 AddrRange) (var2 AddrRange) (var3 Int) (var4 Int) (var5 Heap)) (or (not (and (inv_main8 var5 var4 var3 var2 var1 var0) (and (<= 0 (+ (+ var4 (- 1)) (- 1))) (and (not (<= 0 (+ var4 (- 1)))) (not (<= 0 (+ (+ var4 (* (- 1) var3)) (- 1)))))))) (inv_main28 var5 var4 1 var2 var1 var0))))
(assert (forall ((var0 AddrRange) (var1 AddrRange) (var2 AddrRange) (var3 Heap) (var4 Int) (var5 Int) (var6 Int) (var7 AddrRange) (var8 AddrRange) (var9 AddrRange) (var10 Int) (var11 Int) (var12 Heap)) (or (not (and (inv_main25 var12 var11 var10 var9 var8 var7 var6) (and (<= 0 (+ (+ var5 (- 1)) (- 1))) (and (not (<= 0 (+ (+ var5 (* (- 1) (+ var4 1))) (- 1)))) (and (and (is-O_Int (read var12 (nthAddrRange var7 var10))) (is-O_Int (read var12 (nthAddrRange var7 var10)))) (and (and (and (and (and (= var3 (write var12 (nthAddrRange var7 var10) (O_Int var6))) (= var5 var11)) (= var4 var10)) (= var2 var9)) (= var1 var8)) (= var0 var7))))))) (inv_main28 var3 var5 1 var2 var1 var0))))
(assert (forall ((var0 Int) (var1 AddrRange) (var2 AddrRange) (var3 AddrRange) (var4 Int) (var5 Int) (var6 Heap)) (not (and (inv_main13 var6 var5 var4 var3 var2 var1 var0) (not (is-O_Int (read var6 (nthAddrRange var3 var4))))))))
(assert (forall ((var0 Int) (var1 AddrRange) (var2 AddrRange) (var3 AddrRange) (var4 Int) (var5 Int) (var6 Heap)) (not (and (inv_main13 var6 var5 var4 var3 var2 var1 var0) (and (is-O_Int (read var6 (nthAddrRange var3 var4))) (not (within var3 (nthAddrRange var3 var4))))))))
(assert (forall ((var0 Int) (var1 AddrRange) (var2 AddrRange) (var3 AddrRange) (var4 Int) (var5 Int) (var6 Heap)) (not (and (inv_main13 var6 var5 var4 var3 var2 var1 var0) (and (is-O_Int (read var6 (nthAddrRange var3 var4))) (not (is-O_Int (read var6 (nthAddrRange var3 var4)))))))))
(assert (forall ((var0 Int) (var1 AddrRange) (var2 AddrRange) (var3 AddrRange) (var4 Int) (var5 Int) (var6 Heap)) (not (and (inv_main19 var6 var5 var4 var3 var2 var1 var0) (not (is-O_Int (read var6 (nthAddrRange var2 var4))))))))
(assert (forall ((var0 Int) (var1 AddrRange) (var2 AddrRange) (var3 AddrRange) (var4 Int) (var5 Int) (var6 Heap)) (not (and (inv_main19 var6 var5 var4 var3 var2 var1 var0) (and (is-O_Int (read var6 (nthAddrRange var2 var4))) (not (within var2 (nthAddrRange var2 var4))))))))
(assert (forall ((var0 Int) (var1 AddrRange) (var2 AddrRange) (var3 AddrRange) (var4 Int) (var5 Int) (var6 Heap)) (not (and (inv_main19 var6 var5 var4 var3 var2 var1 var0) (and (is-O_Int (read var6 (nthAddrRange var2 var4))) (not (is-O_Int (read var6 (nthAddrRange var2 var4)))))))))
(assert (forall ((var0 AddrRange) (var1 AddrRange) (var2 AddrRange) (var3 Int) (var4 Int) (var5 Heap)) (not (and (inv_main22 var5 var4 var3 var2 var1 var0) (not (is-O_Int (read var5 (nthAddrRange var2 var3))))))))
(assert (forall ((var0 AddrRange) (var1 AddrRange) (var2 AddrRange) (var3 Int) (var4 Int) (var5 Heap)) (not (and (inv_main22 var5 var4 var3 var2 var1 var0) (and (is-O_Int (read var5 (nthAddrRange var2 var3))) (not (within var2 (nthAddrRange var2 var3))))))))
(assert (forall ((var0 Int) (var1 AddrRange) (var2 AddrRange) (var3 AddrRange) (var4 Int) (var5 Int) (var6 Heap)) (not (and (inv_main24 var6 var5 var4 var3 var2 var1 var0) (not (is-O_Int (read var6 (nthAddrRange var2 var4))))))))
(assert (forall ((var0 Int) (var1 AddrRange) (var2 AddrRange) (var3 AddrRange) (var4 Int) (var5 Int) (var6 Heap)) (not (and (inv_main24 var6 var5 var4 var3 var2 var1 var0) (and (is-O_Int (read var6 (nthAddrRange var2 var4))) (not (within var2 (nthAddrRange var2 var4))))))))
(assert (forall ((var0 Int) (var1 AddrRange) (var2 AddrRange) (var3 AddrRange) (var4 Int) (var5 Int) (var6 Heap)) (not (and (inv_main25 var6 var5 var4 var3 var2 var1 var0) (not (is-O_Int (read var6 (nthAddrRange var1 var4))))))))
(assert (forall ((var0 Int) (var1 AddrRange) (var2 AddrRange) (var3 AddrRange) (var4 Int) (var5 Int) (var6 Heap)) (not (and (inv_main25 var6 var5 var4 var3 var2 var1 var0) (and (is-O_Int (read var6 (nthAddrRange var1 var4))) (not (within var1 (nthAddrRange var1 var4))))))))
(assert (forall ((var0 Int) (var1 AddrRange) (var2 AddrRange) (var3 AddrRange) (var4 Int) (var5 Int) (var6 Heap)) (not (and (inv_main25 var6 var5 var4 var3 var2 var1 var0) (and (is-O_Int (read var6 (nthAddrRange var1 var4))) (not (is-O_Int (read var6 (nthAddrRange var1 var4)))))))))
(assert (forall ((var0 AddrRange) (var1 AddrRange) (var2 AddrRange) (var3 Int) (var4 Int) (var5 Heap)) (not (and (inv_main28 var5 var4 var3 var2 var1 var0) (not (is-O_Int (read var5 (nthAddrRange var0 var3))))))))
(assert (forall ((var0 AddrRange) (var1 AddrRange) (var2 AddrRange) (var3 Int) (var4 Int) (var5 Heap)) (not (and (inv_main28 var5 var4 var3 var2 var1 var0) (not (within var0 (nthAddrRange var0 var3)))))))
(assert (forall ((var0 AddrRange) (var1 AddrRange) (var2 AddrRange) (var3 Int) (var4 Int) (var5 Heap)) (not (and (inv_main28 var5 var4 var3 var2 var1 var0) (not (is-O_Int (read var5 (nthAddrRange var0 var3))))))))
(assert (forall ((var0 AddrRange) (var1 AddrRange) (var2 AddrRange) (var3 Int) (var4 Int) (var5 Heap)) (not (and (inv_main28 var5 var4 var3 var2 var1 var0) (and (is-O_Int (read var5 (nthAddrRange var0 var3))) (not (within var0 (nthAddrRange var0 var3))))))))
(assert (forall ((var0 AddrRange) (var1 AddrRange) (var2 AddrRange) (var3 Int) (var4 Int) (var5 Heap)) (not (and (inv_main28 var5 var4 var3 var2 var1 var0) (and (is-O_Int (read var5 (nthAddrRange var0 var3))) (not (= (getInt (read var5 (nthAddrRange var0 var3))) 0)))))))
(check-sat)
